c 0.010040760040283203 (encode time in sec)
p cnf 160 1048
1 2 3 4 0
1 2 -3 6 0
1 -2 3 5 0
1 -2 -3 7 0
-1 2 3 8 0
-1 2 -3 9 0
-1 -2 3 10 0
-1 -2 -3 11 0
12 13 14 22 0
12 13 -14 18 0
12 -13 14 15 0
12 -13 -14 17 0
-12 13 14 16 0
-12 13 -14 19 0
-12 -13 14 20 0
-12 -13 -14 21 0
23 24 25 26 0
23 24 -25 32 0
23 -24 25 27 0
23 -24 -25 28 0
-23 24 25 29 0
-23 24 -25 30 0
-23 -24 25 33 0
-23 -24 -25 31 0
34 35 36 1 2 3 12 13 14 37 0
34 35 36 1 2 3 12 13 -14 37 0
34 35 36 1 2 3 12 -13 14 40 0
34 35 36 1 2 3 12 -13 -14 39 0
34 35 36 1 2 3 -12 13 14 39 0
34 35 36 1 2 3 -12 13 -14 64 0
34 35 36 1 2 3 -12 -13 14 37 0
34 35 36 1 2 3 -12 -13 -14 37 0
34 35 36 1 2 -3 12 13 14 37 0
34 35 36 1 2 -3 12 13 -14 38 0
34 35 36 1 2 -3 12 -13 14 41 0
34 35 36 1 2 -3 12 -13 -14 42 0
34 35 36 1 2 -3 -12 13 14 65 0
34 35 36 1 2 -3 -12 13 -14 42 0
34 35 36 1 2 -3 -12 -13 14 43 0
34 35 36 1 2 -3 -12 -13 -14 37 0
34 35 36 1 -2 3 12 13 14 40 0
34 35 36 1 -2 3 12 13 -14 44 0
34 35 36 1 -2 3 12 -13 14 43 0
34 35 36 1 -2 3 12 -13 -14 78 0
34 35 36 1 -2 3 -12 13 14 45 0
34 35 36 1 -2 3 -12 13 -14 66 0
34 35 36 1 -2 3 -12 -13 14 57 0
34 35 36 1 -2 3 -12 -13 -14 39 0
34 35 36 1 -2 -3 12 13 14 37 0
34 35 36 1 -2 -3 12 13 -14 44 0
34 35 36 1 -2 -3 12 -13 14 60 0
34 35 36 1 -2 -3 12 -13 -14 79 0
34 35 36 1 -2 -3 -12 13 14 46 0
34 35 36 1 -2 -3 -12 13 -14 56 0
34 35 36 1 -2 -3 -12 -13 14 65 0
34 35 36 1 -2 -3 -12 -13 -14 58 0
34 35 36 -1 2 3 12 13 14 39 0
34 35 36 -1 2 3 12 13 -14 58 0
34 35 36 -1 2 3 12 -13 14 65 0
34 35 36 -1 2 3 12 -13 -14 52 0
34 35 36 -1 2 3 -12 13 14 67 0
34 35 36 -1 2 3 -12 13 -14 56 0
34 35 36 -1 2 3 -12 -13 14 68 0
34 35 36 -1 2 3 -12 -13 -14 39 0
34 35 36 -1 2 -3 12 13 14 61 0
34 35 36 -1 2 -3 12 13 -14 37 0
34 35 36 -1 2 -3 12 -13 14 68 0
34 35 36 -1 2 -3 12 -13 -14 52 0
34 35 36 -1 2 -3 -12 13 14 66 0
34 35 36 -1 2 -3 -12 13 -14 58 0
34 35 36 -1 2 -3 -12 -13 14 64 0
34 35 36 -1 2 -3 -12 -13 -14 37 0
34 35 36 -1 -2 3 12 13 14 37 0
34 35 36 -1 -2 3 12 13 -14 39 0
34 35 36 -1 -2 3 12 -13 14 64 0
34 35 36 -1 -2 3 12 -13 -14 69 0
34 35 36 -1 -2 3 -12 13 14 58 0
34 35 36 -1 -2 3 -12 13 -14 64 0
34 35 36 -1 -2 3 -12 -13 14 69 0
34 35 36 -1 -2 3 -12 -13 -14 37 0
34 35 36 -1 -2 -3 12 13 14 37 0
34 35 36 -1 -2 -3 12 13 -14 37 0
34 35 36 -1 -2 -3 12 -13 14 37 0
34 35 36 -1 -2 -3 12 -13 -14 37 0
34 35 36 -1 -2 -3 -12 13 14 58 0
34 35 36 -1 -2 -3 -12 13 -14 37 0
34 35 36 -1 -2 -3 -12 -13 14 37 0
34 35 36 -1 -2 -3 -12 -13 -14 37 0
34 35 -36 1 2 3 12 13 14 37 0
34 35 -36 1 2 3 12 13 -14 37 0
34 35 -36 1 2 3 12 -13 14 69 0
34 35 -36 1 2 3 12 -13 -14 62 0
34 35 -36 1 2 3 -12 13 14 39 0
34 35 -36 1 2 3 -12 13 -14 64 0
34 35 -36 1 2 3 -12 -13 14 37 0
34 35 -36 1 2 3 -12 -13 -14 37 0
34 35 -36 1 2 -3 12 13 14 37 0
34 35 -36 1 2 -3 12 13 -14 50 0
34 35 -36 1 2 -3 12 -13 14 80 0
34 35 -36 1 2 -3 12 -13 -14 42 0
34 35 -36 1 2 -3 -12 13 14 65 0
34 35 -36 1 2 -3 -12 13 -14 42 0
34 35 -36 1 2 -3 -12 -13 14 43 0
34 35 -36 1 2 -3 -12 -13 -14 37 0
34 35 -36 1 -2 3 12 13 14 69 0
34 35 -36 1 -2 3 12 13 -14 73 0
34 35 -36 1 -2 3 12 -13 14 47 0
34 35 -36 1 -2 3 12 -13 -14 37 0
34 35 -36 1 -2 3 -12 13 14 45 0
34 35 -36 1 -2 3 -12 13 -14 66 0
34 35 -36 1 -2 3 -12 -13 14 57 0
34 35 -36 1 -2 3 -12 -13 -14 39 0
34 35 -36 1 -2 -3 12 13 14 37 0
34 35 -36 1 -2 -3 12 13 -14 83 0
34 35 -36 1 -2 -3 12 -13 14 63 0
34 35 -36 1 -2 -3 12 -13 -14 79 0
34 35 -36 1 -2 -3 -12 13 14 46 0
34 35 -36 1 -2 -3 -12 13 -14 56 0
34 35 -36 1 -2 -3 -12 -13 14 65 0
34 35 -36 1 -2 -3 -12 -13 -14 58 0
34 35 -36 -1 2 3 12 13 14 62 0
34 35 -36 -1 2 3 12 13 -14 48 0
34 35 -36 -1 2 3 12 -13 14 65 0
34 35 -36 -1 2 3 12 -13 -14 52 0
34 35 -36 -1 2 3 -12 13 14 67 0
34 35 -36 -1 2 3 -12 13 -14 56 0
34 35 -36 -1 2 3 -12 -13 14 68 0
34 35 -36 -1 2 3 -12 -13 -14 39 0
34 35 -36 -1 2 -3 12 13 14 69 0
34 35 -36 -1 2 -3 12 13 -14 37 0
34 35 -36 -1 2 -3 12 -13 14 68 0
34 35 -36 -1 2 -3 12 -13 -14 52 0
34 35 -36 -1 2 -3 -12 13 14 66 0
34 35 -36 -1 2 -3 -12 13 -14 58 0
34 35 -36 -1 2 -3 -12 -13 14 64 0
34 35 -36 -1 2 -3 -12 -13 -14 37 0
34 35 -36 -1 -2 3 12 13 14 37 0
34 35 -36 -1 -2 3 12 13 -14 39 0
34 35 -36 -1 -2 3 12 -13 14 64 0
34 35 -36 -1 -2 3 12 -13 -14 69 0
34 35 -36 -1 -2 3 -12 13 14 58 0
34 35 -36 -1 -2 3 -12 13 -14 64 0
34 35 -36 -1 -2 3 -12 -13 14 69 0
34 35 -36 -1 -2 3 -12 -13 -14 37 0
34 35 -36 -1 -2 -3 12 13 14 37 0
34 35 -36 -1 -2 -3 12 13 -14 37 0
34 35 -36 -1 -2 -3 12 -13 14 37 0
34 35 -36 -1 -2 -3 12 -13 -14 37 0
34 35 -36 -1 -2 -3 -12 13 14 58 0
34 35 -36 -1 -2 -3 -12 13 -14 37 0
34 35 -36 -1 -2 -3 -12 -13 14 37 0
34 35 -36 -1 -2 -3 -12 -13 -14 37 0
34 -35 36 1 2 3 12 13 14 37 0
34 -35 36 1 2 3 12 13 -14 37 0
34 -35 36 1 2 3 12 -13 14 69 0
34 -35 36 1 2 3 12 -13 -14 39 0
34 -35 36 1 2 3 -12 13 14 62 0
34 -35 36 1 2 3 -12 13 -14 64 0
34 -35 36 1 2 3 -12 -13 14 37 0
34 -35 36 1 2 3 -12 -13 -14 37 0
34 -35 36 1 2 -3 12 13 14 37 0
34 -35 36 1 2 -3 12 13 -14 64 0
34 -35 36 1 2 -3 12 -13 14 41 0
34 -35 36 1 2 -3 12 -13 -14 88 0
34 -35 36 1 2 -3 -12 13 14 89 0
34 -35 36 1 2 -3 -12 13 -14 42 0
34 -35 36 1 2 -3 -12 -13 14 43 0
34 -35 36 1 2 -3 -12 -13 -14 37 0
34 -35 36 1 -2 3 12 13 14 69 0
34 -35 36 1 -2 3 12 13 -14 70 0
34 -35 36 1 -2 3 12 -13 14 49 0
34 -35 36 1 -2 3 12 -13 -14 48 0
34 -35 36 1 -2 3 -12 13 14 45 0
34 -35 36 1 -2 3 -12 13 -14 66 0
34 -35 36 1 -2 3 -12 -13 14 57 0
34 -35 36 1 -2 3 -12 -13 -14 39 0
34 -35 36 1 -2 -3 12 13 14 37 0
34 -35 36 1 -2 -3 12 13 -14 44 0
34 -35 36 1 -2 -3 12 -13 14 54 0
34 -35 36 1 -2 -3 12 -13 -14 85 0
34 -35 36 1 -2 -3 -12 13 14 46 0
34 -35 36 1 -2 -3 -12 13 -14 56 0
34 -35 36 1 -2 -3 -12 -13 14 65 0
34 -35 36 1 -2 -3 -12 -13 -14 58 0
34 -35 36 -1 2 3 12 13 14 39 0
34 -35 36 -1 2 3 12 13 -14 48 0
34 -35 36 -1 2 3 12 -13 14 39 0
34 -35 36 -1 2 3 12 -13 -14 52 0
34 -35 36 -1 2 3 -12 13 14 67 0
34 -35 36 -1 2 3 -12 13 -14 56 0
34 -35 36 -1 2 3 -12 -13 14 68 0
34 -35 36 -1 2 3 -12 -13 -14 39 0
34 -35 36 -1 2 -3 12 13 14 61 0
34 -35 36 -1 2 -3 12 13 -14 37 0
34 -35 36 -1 2 -3 12 -13 14 70 0
34 -35 36 -1 2 -3 12 -13 -14 52 0
34 -35 36 -1 2 -3 -12 13 14 66 0
34 -35 36 -1 2 -3 -12 13 -14 58 0
34 -35 36 -1 2 -3 -12 -13 14 64 0
34 -35 36 -1 2 -3 -12 -13 -14 37 0
34 -35 36 -1 -2 3 12 13 14 37 0
34 -35 36 -1 -2 3 12 13 -14 39 0
34 -35 36 -1 -2 3 12 -13 14 64 0
34 -35 36 -1 -2 3 12 -13 -14 69 0
34 -35 36 -1 -2 3 -12 13 14 58 0
34 -35 36 -1 -2 3 -12 13 -14 64 0
34 -35 36 -1 -2 3 -12 -13 14 69 0
34 -35 36 -1 -2 3 -12 -13 -14 37 0
34 -35 36 -1 -2 -3 12 13 14 37 0
34 -35 36 -1 -2 -3 12 13 -14 37 0
34 -35 36 -1 -2 -3 12 -13 14 37 0
34 -35 36 -1 -2 -3 12 -13 -14 37 0
34 -35 36 -1 -2 -3 -12 13 14 58 0
34 -35 36 -1 -2 -3 -12 13 -14 37 0
34 -35 36 -1 -2 -3 -12 -13 14 37 0
34 -35 36 -1 -2 -3 -12 -13 -14 37 0
34 -35 -36 1 2 3 12 13 14 37 0
34 -35 -36 1 2 3 12 13 -14 37 0
34 -35 -36 1 2 3 12 -13 14 69 0
34 -35 -36 1 2 3 12 -13 -14 39 0
34 -35 -36 1 2 3 -12 13 14 39 0
34 -35 -36 1 2 3 -12 13 -14 38 0
34 -35 -36 1 2 3 -12 -13 14 37 0
34 -35 -36 1 2 3 -12 -13 -14 37 0
34 -35 -36 1 2 -3 12 13 14 37 0
34 -35 -36 1 2 -3 12 13 -14 64 0
34 -35 -36 1 2 -3 12 -13 14 42 0
34 -35 -36 1 2 -3 12 -13 -14 41 0
34 -35 -36 1 2 -3 -12 13 14 74 0
34 -35 -36 1 2 -3 -12 13 -14 41 0
34 -35 -36 1 2 -3 -12 -13 14 43 0
34 -35 -36 1 2 -3 -12 -13 -14 37 0
34 -35 -36 1 -2 3 12 13 14 69 0
34 -35 -36 1 -2 3 12 13 -14 68 0
34 -35 -36 1 -2 3 12 -13 14 37 0
34 -35 -36 1 -2 3 12 -13 -14 49 0
34 -35 -36 1 -2 3 -12 13 14 95 0
34 -35 -36 1 -2 3 -12 13 -14 66 0
34 -35 -36 1 -2 3 -12 -13 14 57 0
34 -35 -36 1 -2 3 -12 -13 -14 39 0
34 -35 -36 1 -2 -3 12 13 14 37 0
34 -35 -36 1 -2 -3 12 13 -14 68 0
34 -35 -36 1 -2 -3 12 -13 14 86 0
34 -35 -36 1 -2 -3 12 -13 -14 54 0
34 -35 -36 1 -2 -3 -12 13 14 92 0
34 -35 -36 1 -2 -3 -12 13 -14 56 0
34 -35 -36 1 -2 -3 -12 -13 14 65 0
34 -35 -36 1 -2 -3 -12 -13 -14 58 0
34 -35 -36 -1 2 3 12 13 14 39 0
34 -35 -36 -1 2 3 12 13 -14 58 0
34 -35 -36 -1 2 3 12 -13 14 51 0
34 -35 -36 -1 2 3 12 -13 -14 84 0
34 -35 -36 -1 2 3 -12 13 14 53 0
34 -35 -36 -1 2 3 -12 13 -14 56 0
34 -35 -36 -1 2 3 -12 -13 14 68 0
34 -35 -36 -1 2 3 -12 -13 -14 39 0
34 -35 -36 -1 2 -3 12 13 14 69 0
34 -35 -36 -1 2 -3 12 13 -14 37 0
34 -35 -36 -1 2 -3 12 -13 14 73 0
34 -35 -36 -1 2 -3 12 -13 -14 71 0
34 -35 -36 -1 2 -3 -12 13 14 66 0
34 -35 -36 -1 2 -3 -12 13 -14 58 0
34 -35 -36 -1 2 -3 -12 -13 14 64 0
34 -35 -36 -1 2 -3 -12 -13 -14 37 0
34 -35 -36 -1 -2 3 12 13 14 37 0
34 -35 -36 -1 -2 3 12 13 -14 62 0
34 -35 -36 -1 -2 3 12 -13 14 55 0
34 -35 -36 -1 -2 3 12 -13 -14 69 0
34 -35 -36 -1 -2 3 -12 13 14 58 0
34 -35 -36 -1 -2 3 -12 13 -14 64 0
34 -35 -36 -1 -2 3 -12 -13 14 69 0
34 -35 -36 -1 -2 3 -12 -13 -14 37 0
34 -35 -36 -1 -2 -3 12 13 14 37 0
34 -35 -36 -1 -2 -3 12 13 -14 37 0
34 -35 -36 -1 -2 -3 12 -13 14 37 0
34 -35 -36 -1 -2 -3 12 -13 -14 37 0
34 -35 -36 -1 -2 -3 -12 13 14 58 0
34 -35 -36 -1 -2 -3 -12 13 -14 37 0
34 -35 -36 -1 -2 -3 -12 -13 14 37 0
34 -35 -36 -1 -2 -3 -12 -13 -14 37 0
-34 35 36 1 2 3 12 13 14 37 0
-34 35 36 1 2 3 12 13 -14 37 0
-34 35 36 1 2 3 12 -13 14 69 0
-34 35 36 1 2 3 12 -13 -14 39 0
-34 35 36 1 2 3 -12 13 14 39 0
-34 35 36 1 2 3 -12 13 -14 50 0
-34 35 36 1 2 3 -12 -13 14 37 0
-34 35 36 1 2 3 -12 -13 -14 37 0
-34 35 36 1 2 -3 12 13 14 37 0
-34 35 36 1 2 -3 12 13 -14 64 0
-34 35 36 1 2 -3 12 -13 14 42 0
-34 35 36 1 2 -3 12 -13 -14 42 0
-34 35 36 1 2 -3 -12 13 14 65 0
-34 35 36 1 2 -3 -12 13 -14 88 0
-34 35 36 1 2 -3 -12 -13 14 49 0
-34 35 36 1 2 -3 -12 -13 -14 37 0
-34 35 36 1 -2 3 12 13 14 69 0
-34 35 36 1 -2 3 12 13 -14 68 0
-34 35 36 1 -2 3 12 -13 14 43 0
-34 35 36 1 -2 3 12 -13 -14 58 0
-34 35 36 1 -2 3 -12 13 14 81 0
-34 35 36 1 -2 3 -12 13 -14 82 0
-34 35 36 1 -2 3 -12 -13 14 61 0
-34 35 36 1 -2 3 -12 -13 -14 39 0
-34 35 36 1 -2 -3 12 13 14 37 0
-34 35 36 1 -2 -3 12 13 -14 68 0
-34 35 36 1 -2 -3 12 -13 14 60 0
-34 35 36 1 -2 -3 12 -13 -14 61 0
-34 35 36 1 -2 -3 -12 13 14 59 0
-34 35 36 1 -2 -3 -12 13 -14 83 0
-34 35 36 1 -2 -3 -12 -13 14 65 0
-34 35 36 1 -2 -3 -12 -13 -14 58 0
-34 35 36 -1 2 3 12 13 14 39 0
-34 35 36 -1 2 3 12 13 -14 58 0
-34 35 36 -1 2 3 12 -13 14 39 0
-34 35 36 -1 2 3 12 -13 -14 91 0
-34 35 36 -1 2 3 -12 13 14 93 0
-34 35 36 -1 2 3 -12 13 -14 56 0
-34 35 36 -1 2 3 -12 -13 14 68 0
-34 35 36 -1 2 3 -12 -13 -14 39 0
-34 35 36 -1 2 -3 12 13 14 69 0
-34 35 36 -1 2 -3 12 13 -14 37 0
-34 35 36 -1 2 -3 12 -13 14 44 0
-34 35 36 -1 2 -3 12 -13 -14 84 0
-34 35 36 -1 2 -3 -12 13 14 75 0
-34 35 36 -1 2 -3 -12 13 -14 58 0
-34 35 36 -1 2 -3 -12 -13 14 64 0
-34 35 36 -1 2 -3 -12 -13 -14 37 0
-34 35 36 -1 -2 3 12 13 14 37 0
-34 35 36 -1 -2 3 12 13 -14 39 0
-34 35 36 -1 -2 3 12 -13 14 64 0
-34 35 36 -1 -2 3 12 -13 -14 69 0
-34 35 36 -1 -2 3 -12 13 14 58 0
-34 35 36 -1 -2 3 -12 13 -14 64 0
-34 35 36 -1 -2 3 -12 -13 14 69 0
-34 35 36 -1 -2 3 -12 -13 -14 37 0
-34 35 36 -1 -2 -3 12 13 14 37 0
-34 35 36 -1 -2 -3 12 13 -14 37 0
-34 35 36 -1 -2 -3 12 -13 14 37 0
-34 35 36 -1 -2 -3 12 -13 -14 37 0
-34 35 36 -1 -2 -3 -12 13 14 58 0
-34 35 36 -1 -2 -3 -12 13 -14 37 0
-34 35 36 -1 -2 -3 -12 -13 14 37 0
-34 35 36 -1 -2 -3 -12 -13 -14 37 0
-34 35 -36 1 2 3 12 13 14 37 0
-34 35 -36 1 2 3 12 13 -14 37 0
-34 35 -36 1 2 3 12 -13 14 69 0
-34 35 -36 1 2 3 12 -13 -14 39 0
-34 35 -36 1 2 3 -12 13 14 39 0
-34 35 -36 1 2 3 -12 13 -14 64 0
-34 35 -36 1 2 3 -12 -13 14 37 0
-34 35 -36 1 2 3 -12 -13 -14 37 0
-34 35 -36 1 2 -3 12 13 14 37 0
-34 35 -36 1 2 -3 12 13 -14 64 0
-34 35 -36 1 2 -3 12 -13 14 42 0
-34 35 -36 1 2 -3 12 -13 -14 42 0
-34 35 -36 1 2 -3 -12 13 14 65 0
-34 35 -36 1 2 -3 -12 13 -14 42 0
-34 35 -36 1 2 -3 -12 -13 14 48 0
-34 35 -36 1 2 -3 -12 -13 -14 37 0
-34 35 -36 1 -2 3 12 13 14 69 0
-34 35 -36 1 -2 3 12 13 -14 68 0
-34 35 -36 1 -2 3 12 -13 14 43 0
-34 35 -36 1 -2 3 12 -13 -14 78 0
-34 35 -36 1 -2 3 -12 13 14 45 0
-34 35 -36 1 -2 3 -12 13 -14 72 0
-34 35 -36 1 -2 3 -12 -13 14 61 0
-34 35 -36 1 -2 3 -12 -13 -14 39 0
-34 35 -36 1 -2 -3 12 13 14 37 0
-34 35 -36 1 -2 -3 12 13 -14 68 0
-34 35 -36 1 -2 -3 12 -13 14 60 0
-34 35 -36 1 -2 -3 12 -13 -14 79 0
-34 35 -36 1 -2 -3 -12 13 14 92 0
-34 35 -36 1 -2 -3 -12 13 -14 83 0
-34 35 -36 1 -2 -3 -12 -13 14 95 0
-34 35 -36 1 -2 -3 -12 -13 -14 58 0
-34 35 -36 -1 2 3 12 13 14 39 0
-34 35 -36 -1 2 3 12 13 -14 58 0
-34 35 -36 -1 2 3 12 -13 14 65 0
-34 35 -36 -1 2 3 12 -13 -14 57 0
-34 35 -36 -1 2 3 -12 13 14 76 0
-34 35 -36 -1 2 3 -12 13 -14 73 0
-34 35 -36 -1 2 3 -12 -13 14 70 0
-34 35 -36 -1 2 3 -12 -13 -14 39 0
-34 35 -36 -1 2 -3 12 13 14 69 0
-34 35 -36 -1 2 -3 12 13 -14 37 0
-34 35 -36 -1 2 -3 12 -13 14 68 0
-34 35 -36 -1 2 -3 12 -13 -14 40 0
-34 35 -36 -1 2 -3 -12 13 14 82 0
-34 35 -36 -1 2 -3 -12 13 -14 71 0
-34 35 -36 -1 2 -3 -12 -13 14 64 0
-34 35 -36 -1 2 -3 -12 -13 -14 37 0
-34 35 -36 -1 -2 3 12 13 14 37 0
-34 35 -36 -1 -2 3 12 13 -14 39 0
-34 35 -36 -1 -2 3 12 -13 14 64 0
-34 35 -36 -1 -2 3 12 -13 -14 40 0
-34 35 -36 -1 -2 3 -12 13 14 81 0
-34 35 -36 -1 -2 3 -12 13 -14 64 0
-34 35 -36 -1 -2 3 -12 -13 14 69 0
-34 35 -36 -1 -2 3 -12 -13 -14 37 0
-34 35 -36 -1 -2 -3 12 13 14 37 0
-34 35 -36 -1 -2 -3 12 13 -14 37 0
-34 35 -36 -1 -2 -3 12 -13 14 37 0
-34 35 -36 -1 -2 -3 12 -13 -14 37 0
-34 35 -36 -1 -2 -3 -12 13 14 58 0
-34 35 -36 -1 -2 -3 -12 13 -14 37 0
-34 35 -36 -1 -2 -3 -12 -13 14 37 0
-34 35 -36 -1 -2 -3 -12 -13 -14 37 0
-34 -35 36 1 2 3 12 13 14 37 0
-34 -35 36 1 2 3 12 13 -14 37 0
-34 -35 36 1 2 3 12 -13 14 69 0
-34 -35 36 1 2 3 12 -13 -14 39 0
-34 -35 36 1 2 3 -12 13 14 39 0
-34 -35 36 1 2 3 -12 13 -14 64 0
-34 -35 36 1 2 3 -12 -13 14 37 0
-34 -35 36 1 2 3 -12 -13 -14 37 0
-34 -35 36 1 2 -3 12 13 14 37 0
-34 -35 36 1 2 -3 12 13 -14 64 0
-34 -35 36 1 2 -3 12 -13 14 42 0
-34 -35 36 1 2 -3 12 -13 -14 42 0
-34 -35 36 1 2 -3 -12 13 14 65 0
-34 -35 36 1 2 -3 -12 13 -14 42 0
-34 -35 36 1 2 -3 -12 -13 14 43 0
-34 -35 36 1 2 -3 -12 -13 -14 37 0
-34 -35 36 1 -2 3 12 13 14 69 0
-34 -35 36 1 -2 3 12 13 -14 68 0
-34 -35 36 1 -2 3 12 -13 14 43 0
-34 -35 36 1 -2 3 12 -13 -14 78 0
-34 -35 36 1 -2 3 -12 13 14 45 0
-34 -35 36 1 -2 3 -12 13 -14 66 0
-34 -35 36 1 -2 3 -12 -13 14 77 0
-34 -35 36 1 -2 3 -12 -13 -14 39 0
-34 -35 36 1 -2 -3 12 13 14 37 0
-34 -35 36 1 -2 -3 12 13 -14 68 0
-34 -35 36 1 -2 -3 12 -13 14 60 0
-34 -35 36 1 -2 -3 12 -13 -14 79 0
-34 -35 36 1 -2 -3 -12 13 14 46 0
-34 -35 36 1 -2 -3 -12 13 -14 87 0
-34 -35 36 1 -2 -3 -12 -13 14 62 0
-34 -35 36 1 -2 -3 -12 -13 -14 71 0
-34 -35 36 -1 2 3 12 13 14 39 0
-34 -35 36 -1 2 3 12 13 -14 58 0
-34 -35 36 -1 2 3 12 -13 14 65 0
-34 -35 36 -1 2 3 12 -13 -14 52 0
-34 -35 36 -1 2 3 -12 13 14 53 0
-34 -35 36 -1 2 3 -12 13 -14 94 0
-34 -35 36 -1 2 3 -12 -13 14 70 0
-34 -35 36 -1 2 3 -12 -13 -14 62 0
-34 -35 36 -1 2 -3 12 13 14 69 0
-34 -35 36 -1 2 -3 12 13 -14 37 0
-34 -35 36 -1 2 -3 12 -13 14 68 0
-34 -35 36 -1 2 -3 12 -13 -14 52 0
-34 -35 36 -1 2 -3 -12 13 14 90 0
-34 -35 36 -1 2 -3 -12 13 -14 48 0
-34 -35 36 -1 2 -3 -12 -13 14 64 0
-34 -35 36 -1 2 -3 -12 -13 -14 37 0
-34 -35 36 -1 -2 3 12 13 14 37 0
-34 -35 36 -1 -2 3 12 13 -14 39 0
-34 -35 36 -1 -2 3 12 -13 14 64 0
-34 -35 36 -1 -2 3 12 -13 -14 69 0
-34 -35 36 -1 -2 3 -12 13 14 71 0
-34 -35 36 -1 -2 3 -12 13 -14 50 0
-34 -35 36 -1 -2 3 -12 -13 14 69 0
-34 -35 36 -1 -2 3 -12 -13 -14 37 0
-34 -35 36 -1 -2 -3 12 13 14 37 0
-34 -35 36 -1 -2 -3 12 13 -14 37 0
-34 -35 36 -1 -2 -3 12 -13 14 37 0
-34 -35 36 -1 -2 -3 12 -13 -14 37 0
-34 -35 36 -1 -2 -3 -12 13 14 81 0
-34 -35 36 -1 -2 -3 -12 13 -14 37 0
-34 -35 36 -1 -2 -3 -12 -13 14 37 0
-34 -35 36 -1 -2 -3 -12 -13 -14 37 0
-34 -35 -36 1 2 3 12 13 14 37 0
-34 -35 -36 1 2 3 12 13 -14 37 0
-34 -35 -36 1 2 3 12 -13 14 69 0
-34 -35 -36 1 2 3 12 -13 -14 39 0
-34 -35 -36 1 2 3 -12 13 14 39 0
-34 -35 -36 1 2 3 -12 13 -14 64 0
-34 -35 -36 1 2 3 -12 -13 14 37 0
-34 -35 -36 1 2 3 -12 -13 -14 37 0
-34 -35 -36 1 2 -3 12 13 14 37 0
-34 -35 -36 1 2 -3 12 13 -14 64 0
-34 -35 -36 1 2 -3 12 -13 14 42 0
-34 -35 -36 1 2 -3 12 -13 -14 42 0
-34 -35 -36 1 2 -3 -12 13 14 65 0
-34 -35 -36 1 2 -3 -12 13 -14 42 0
-34 -35 -36 1 2 -3 -12 -13 14 43 0
-34 -35 -36 1 2 -3 -12 -13 -14 37 0
-34 -35 -36 1 -2 3 12 13 14 69 0
-34 -35 -36 1 -2 3 12 13 -14 68 0
-34 -35 -36 1 -2 3 12 -13 14 43 0
-34 -35 -36 1 -2 3 12 -13 -14 78 0
-34 -35 -36 1 -2 3 -12 13 14 45 0
-34 -35 -36 1 -2 3 -12 13 -14 66 0
-34 -35 -36 1 -2 3 -12 -13 14 57 0
-34 -35 -36 1 -2 3 -12 -13 -14 62 0
-34 -35 -36 1 -2 -3 12 13 14 37 0
-34 -35 -36 1 -2 -3 12 13 -14 68 0
-34 -35 -36 1 -2 -3 12 -13 14 60 0
-34 -35 -36 1 -2 -3 12 -13 -14 79 0
-34 -35 -36 1 -2 -3 -12 13 14 46 0
-34 -35 -36 1 -2 -3 -12 13 -14 56 0
-34 -35 -36 1 -2 -3 -12 -13 14 65 0
-34 -35 -36 1 -2 -3 -12 -13 -14 81 0
-34 -35 -36 -1 2 3 12 13 14 39 0
-34 -35 -36 -1 2 3 12 13 -14 58 0
-34 -35 -36 -1 2 3 12 -13 14 65 0
-34 -35 -36 -1 2 3 12 -13 -14 52 0
-34 -35 -36 -1 2 3 -12 13 14 67 0
-34 -35 -36 -1 2 3 -12 13 -14 87 0
-34 -35 -36 -1 2 3 -12 -13 14 70 0
-34 -35 -36 -1 2 3 -12 -13 -14 39 0
-34 -35 -36 -1 2 -3 12 13 14 69 0
-34 -35 -36 -1 2 -3 12 13 -14 37 0
-34 -35 -36 -1 2 -3 12 -13 14 68 0
-34 -35 -36 -1 2 -3 12 -13 -14 52 0
-34 -35 -36 -1 2 -3 -12 13 14 66 0
-34 -35 -36 -1 2 -3 -12 13 -14 71 0
-34 -35 -36 -1 2 -3 -12 -13 14 55 0
-34 -35 -36 -1 2 -3 -12 -13 -14 37 0
-34 -35 -36 -1 -2 3 12 13 14 37 0
-34 -35 -36 -1 -2 3 12 13 -14 39 0
-34 -35 -36 -1 -2 3 12 -13 14 64 0
-34 -35 -36 -1 -2 3 12 -13 -14 69 0
-34 -35 -36 -1 -2 3 -12 13 14 58 0
-34 -35 -36 -1 -2 3 -12 13 -14 38 0
-34 -35 -36 -1 -2 3 -12 -13 14 40 0
-34 -35 -36 -1 -2 3 -12 -13 -14 37 0
-34 -35 -36 -1 -2 -3 12 13 14 37 0
-34 -35 -36 -1 -2 -3 12 13 -14 37 0
-34 -35 -36 -1 -2 -3 12 -13 14 37 0
-34 -35 -36 -1 -2 -3 12 -13 -14 37 0
-34 -35 -36 -1 -2 -3 -12 13 14 71 0
-34 -35 -36 -1 -2 -3 -12 13 -14 37 0
-34 -35 -36 -1 -2 -3 -12 -13 14 37 0
-34 -35 -36 -1 -2 -3 -12 -13 -14 37 0
96 97 98 23 24 25 34 35 36 99 0
96 97 98 23 24 25 34 35 -36 100 0
96 97 98 23 24 25 34 -35 36 136 0
96 97 98 23 24 25 34 -35 -36 123 0
96 97 98 23 24 25 -34 35 36 101 0
96 97 98 23 24 25 -34 35 -36 123 0
96 97 98 23 24 25 -34 -35 36 136 0
96 97 98 23 24 25 -34 -35 -36 101 0
96 97 98 23 24 -25 34 35 36 99 0
96 97 98 23 24 -25 34 35 -36 101 0
96 97 98 23 24 -25 34 -35 36 136 0
96 97 98 23 24 -25 34 -35 -36 102 0
96 97 98 23 24 -25 -34 35 36 102 0
96 97 98 23 24 -25 -34 35 -36 101 0
96 97 98 23 24 -25 -34 -35 36 137 0
96 97 98 23 24 -25 -34 -35 -36 101 0
96 97 98 23 -24 25 34 35 36 103 0
96 97 98 23 -24 25 34 35 -36 104 0
96 97 98 23 -24 25 34 -35 36 149 0
96 97 98 23 -24 25 34 -35 -36 106 0
96 97 98 23 -24 25 -34 35 36 145 0
96 97 98 23 -24 25 -34 35 -36 106 0
96 97 98 23 -24 25 -34 -35 36 137 0
96 97 98 23 -24 25 -34 -35 -36 123 0
96 97 98 23 -24 -25 34 35 36 100 0
96 97 98 23 -24 -25 34 35 -36 102 0
96 97 98 23 -24 -25 34 -35 36 129 0
96 97 98 23 -24 -25 34 -35 -36 105 0
96 97 98 23 -24 -25 -34 35 36 108 0
96 97 98 23 -24 -25 -34 35 -36 157 0
96 97 98 23 -24 -25 -34 -35 36 149 0
96 97 98 23 -24 -25 -34 -35 -36 123 0
96 97 98 -23 24 25 34 35 36 107 0
96 97 98 -23 24 25 34 35 -36 123 0
96 97 98 -23 24 25 34 -35 36 102 0
96 97 98 -23 24 25 34 -35 -36 151 0
96 97 98 -23 24 25 -34 35 36 150 0
96 97 98 -23 24 25 -34 35 -36 138 0
96 97 98 -23 24 25 -34 -35 36 118 0
96 97 98 -23 24 25 -34 -35 -36 137 0
96 97 98 -23 24 -25 34 35 36 136 0
96 97 98 -23 24 -25 34 35 -36 136 0
96 97 98 -23 24 -25 34 -35 36 123 0
96 97 98 -23 24 -25 34 -35 -36 152 0
96 97 98 -23 24 -25 -34 35 36 145 0
96 97 98 -23 24 -25 -34 35 -36 124 0
96 97 98 -23 24 -25 -34 -35 36 101 0
96 97 98 -23 24 -25 -34 -35 -36 137 0
96 97 98 -23 -24 25 34 35 36 99 0
96 97 98 -23 -24 25 34 35 -36 99 0
96 97 98 -23 -24 25 34 -35 36 119 0
96 97 98 -23 -24 25 34 -35 -36 136 0
96 97 98 -23 -24 25 -34 35 36 125 0
96 97 98 -23 -24 25 -34 35 -36 137 0
96 97 98 -23 -24 25 -34 -35 36 136 0
96 97 98 -23 -24 25 -34 -35 -36 99 0
96 97 98 -23 -24 -25 34 35 36 99 0
96 97 98 -23 -24 -25 34 35 -36 99 0
96 97 98 -23 -24 -25 34 -35 36 99 0
96 97 98 -23 -24 -25 34 -35 -36 136 0
96 97 98 -23 -24 -25 -34 35 36 136 0
96 97 98 -23 -24 -25 -34 35 -36 101 0
96 97 98 -23 -24 -25 -34 -35 36 101 0
96 97 98 -23 -24 -25 -34 -35 -36 101 0
96 97 -98 23 24 25 34 35 36 99 0
96 97 -98 23 24 25 34 35 -36 101 0
96 97 -98 23 24 25 34 -35 36 103 0
96 97 -98 23 24 25 34 -35 -36 123 0
96 97 -98 23 24 25 -34 35 36 101 0
96 97 -98 23 24 25 -34 35 -36 123 0
96 97 -98 23 24 25 -34 -35 36 136 0
96 97 -98 23 24 25 -34 -35 -36 101 0
96 97 -98 23 24 -25 34 35 36 99 0
96 97 -98 23 24 -25 34 35 -36 100 0
96 97 -98 23 24 -25 34 -35 36 136 0
96 97 -98 23 24 -25 34 -35 -36 102 0
96 97 -98 23 24 -25 -34 35 36 102 0
96 97 -98 23 24 -25 -34 35 -36 101 0
96 97 -98 23 24 -25 -34 -35 36 137 0
96 97 -98 23 24 -25 -34 -35 -36 101 0
96 97 -98 23 -24 25 34 35 36 136 0
96 97 -98 23 -24 25 34 35 -36 154 0
96 97 -98 23 -24 25 34 -35 36 139 0
96 97 -98 23 -24 25 34 -35 -36 106 0
96 97 -98 23 -24 25 -34 35 36 145 0
96 97 -98 23 -24 25 -34 35 -36 106 0
96 97 -98 23 -24 25 -34 -35 36 137 0
96 97 -98 23 -24 25 -34 -35 -36 123 0
96 97 -98 23 -24 -25 34 35 36 101 0
96 97 -98 23 -24 -25 34 35 -36 109 0
96 97 -98 23 -24 -25 34 -35 36 133 0
96 97 -98 23 -24 -25 34 -35 -36 105 0
96 97 -98 23 -24 -25 -34 35 36 108 0
96 97 -98 23 -24 -25 -34 35 -36 157 0
96 97 -98 23 -24 -25 -34 -35 36 149 0
96 97 -98 23 -24 -25 -34 -35 -36 123 0
96 97 -98 -23 24 25 34 35 36 135 0
96 97 -98 -23 24 25 34 35 -36 147 0
96 97 -98 -23 24 25 34 -35 36 102 0
96 97 -98 -23 24 25 34 -35 -36 151 0
96 97 -98 -23 24 25 -34 35 36 150 0
96 97 -98 -23 24 25 -34 35 -36 138 0
96 97 -98 -23 24 25 -34 -35 36 118 0
96 97 -98 -23 24 25 -34 -35 -36 137 0
96 97 -98 -23 24 -25 34 35 36 103 0
96 97 -98 -23 24 -25 34 35 -36 136 0
96 97 -98 -23 24 -25 34 -35 36 123 0
96 97 -98 -23 24 -25 34 -35 -36 152 0
96 97 -98 -23 24 -25 -34 35 36 145 0
96 97 -98 -23 24 -25 -34 35 -36 124 0
96 97 -98 -23 24 -25 -34 -35 36 101 0
96 97 -98 -23 24 -25 -34 -35 -36 137 0
96 97 -98 -23 -24 25 34 35 36 99 0
96 97 -98 -23 -24 25 34 35 -36 99 0
96 97 -98 -23 -24 25 34 -35 36 119 0
96 97 -98 -23 -24 25 34 -35 -36 136 0
96 97 -98 -23 -24 25 -34 35 36 125 0
96 97 -98 -23 -24 25 -34 35 -36 137 0
96 97 -98 -23 -24 25 -34 -35 36 136 0
96 97 -98 -23 -24 25 -34 -35 -36 99 0
96 97 -98 -23 -24 -25 34 35 36 99 0
96 97 -98 -23 -24 -25 34 35 -36 99 0
96 97 -98 -23 -24 -25 34 -35 36 99 0
96 97 -98 -23 -24 -25 34 -35 -36 136 0
96 97 -98 -23 -24 -25 -34 35 36 136 0
96 97 -98 -23 -24 -25 -34 35 -36 101 0
96 97 -98 -23 -24 -25 -34 -35 36 101 0
96 97 -98 -23 -24 -25 -34 -35 -36 101 0
96 -97 98 23 24 25 34 35 36 99 0
96 -97 98 23 24 25 34 35 -36 101 0
96 -97 98 23 24 25 34 -35 36 136 0
96 -97 98 23 24 25 34 -35 -36 147 0
96 -97 98 23 24 25 -34 35 36 101 0
96 -97 98 23 24 25 -34 35 -36 123 0
96 -97 98 23 24 25 -34 -35 36 136 0
96 -97 98 23 24 25 -34 -35 -36 101 0
96 -97 98 23 24 -25 34 35 36 99 0
96 -97 98 23 24 -25 34 35 -36 101 0
96 -97 98 23 24 -25 34 -35 36 103 0
96 -97 98 23 24 -25 34 -35 -36 110 0
96 -97 98 23 24 -25 -34 35 36 102 0
96 -97 98 23 24 -25 -34 35 -36 101 0
96 -97 98 23 24 -25 -34 -35 36 137 0
96 -97 98 23 24 -25 -34 -35 -36 101 0
96 -97 98 23 -24 25 34 35 36 136 0
96 -97 98 23 -24 25 34 35 -36 119 0
96 -97 98 23 -24 25 34 -35 36 160 0
96 -97 98 23 -24 25 34 -35 -36 147 0
96 -97 98 23 -24 25 -34 35 36 145 0
96 -97 98 23 -24 25 -34 35 -36 106 0
96 -97 98 23 -24 25 -34 -35 36 137 0
96 -97 98 23 -24 25 -34 -35 -36 123 0
96 -97 98 23 -24 -25 34 35 36 101 0
96 -97 98 23 -24 -25 34 35 -36 102 0
96 -97 98 23 -24 -25 34 -35 36 153 0
96 -97 98 23 -24 -25 34 -35 -36 102 0
96 -97 98 23 -24 -25 -34 35 36 108 0
96 -97 98 23 -24 -25 -34 35 -36 157 0
96 -97 98 23 -24 -25 -34 -35 36 149 0
96 -97 98 23 -24 -25 -34 -35 -36 123 0
96 -97 98 -23 24 25 34 35 36 119 0
96 -97 98 -23 24 25 34 35 -36 140 0
96 -97 98 -23 24 25 34 -35 36 111 0
96 -97 98 -23 24 25 34 -35 -36 151 0
96 -97 98 -23 24 25 -34 35 36 150 0
96 -97 98 -23 24 25 -34 35 -36 138 0
96 -97 98 -23 24 25 -34 -35 36 118 0
96 -97 98 -23 24 25 -34 -35 -36 137 0
96 -97 98 -23 24 -25 34 35 36 136 0
96 -97 98 -23 24 -25 34 35 -36 103 0
96 -97 98 -23 24 -25 34 -35 36 140 0
96 -97 98 -23 24 -25 34 -35 -36 152 0
96 -97 98 -23 24 -25 -34 35 36 145 0
96 -97 98 -23 24 -25 -34 35 -36 124 0
96 -97 98 -23 24 -25 -34 -35 36 101 0
96 -97 98 -23 24 -25 -34 -35 -36 137 0
96 -97 98 -23 -24 25 34 35 36 99 0
96 -97 98 -23 -24 25 34 35 -36 99 0
96 -97 98 -23 -24 25 34 -35 36 104 0
96 -97 98 -23 -24 25 34 -35 -36 136 0
96 -97 98 -23 -24 25 -34 35 36 125 0
96 -97 98 -23 -24 25 -34 35 -36 137 0
96 -97 98 -23 -24 25 -34 -35 36 136 0
96 -97 98 -23 -24 25 -34 -35 -36 99 0
96 -97 98 -23 -24 -25 34 35 36 99 0
96 -97 98 -23 -24 -25 34 35 -36 99 0
96 -97 98 -23 -24 -25 34 -35 36 99 0
96 -97 98 -23 -24 -25 34 -35 -36 136 0
96 -97 98 -23 -24 -25 -34 35 36 136 0
96 -97 98 -23 -24 -25 -34 35 -36 101 0
96 -97 98 -23 -24 -25 -34 -35 36 101 0
96 -97 98 -23 -24 -25 -34 -35 -36 101 0
96 -97 -98 23 24 25 34 35 36 99 0
96 -97 -98 23 24 25 34 35 -36 101 0
96 -97 -98 23 24 25 34 -35 36 136 0
96 -97 -98 23 24 25 34 -35 -36 140 0
96 -97 -98 23 24 25 -34 35 36 101 0
96 -97 -98 23 24 25 -34 35 -36 123 0
96 -97 -98 23 24 25 -34 -35 36 136 0
96 -97 -98 23 24 25 -34 -35 -36 101 0
96 -97 -98 23 24 -25 34 35 36 99 0
96 -97 -98 23 24 -25 34 35 -36 101 0
96 -97 -98 23 24 -25 34 -35 36 136 0
96 -97 -98 23 24 -25 34 -35 -36 112 0
96 -97 -98 23 24 -25 -34 35 36 113 0
96 -97 -98 23 24 -25 -34 35 -36 101 0
96 -97 -98 23 24 -25 -34 -35 36 137 0
96 -97 -98 23 24 -25 -34 -35 -36 101 0
96 -97 -98 23 -24 25 34 35 36 136 0
96 -97 -98 23 -24 25 34 35 -36 119 0
96 -97 -98 23 -24 25 34 -35 36 149 0
96 -97 -98 23 -24 25 34 -35 -36 155 0
96 -97 -98 23 -24 25 -34 35 36 128 0
96 -97 -98 23 -24 25 -34 35 -36 106 0
96 -97 -98 23 -24 25 -34 -35 36 137 0
96 -97 -98 23 -24 25 -34 -35 -36 123 0
96 -97 -98 23 -24 -25 34 35 36 101 0
96 -97 -98 23 -24 -25 34 35 -36 102 0
96 -97 -98 23 -24 -25 34 -35 36 133 0
96 -97 -98 23 -24 -25 34 -35 -36 114 0
96 -97 -98 23 -24 -25 -34 35 36 134 0
96 -97 -98 23 -24 -25 -34 35 -36 157 0
96 -97 -98 23 -24 -25 -34 -35 36 149 0
96 -97 -98 23 -24 -25 -34 -35 -36 123 0
96 -97 -98 -23 24 25 34 35 36 119 0
96 -97 -98 -23 24 25 34 35 -36 123 0
96 -97 -98 -23 24 25 34 -35 36 122 0
96 -97 -98 -23 24 25 34 -35 -36 130 0
96 -97 -98 -23 24 25 -34 35 36 150 0
96 -97 -98 -23 24 25 -34 35 -36 138 0
96 -97 -98 -23 24 25 -34 -35 36 118 0
96 -97 -98 -23 24 25 -34 -35 -36 137 0
96 -97 -98 -23 24 -25 34 35 36 136 0
96 -97 -98 -23 24 -25 34 35 -36 136 0
96 -97 -98 -23 24 -25 34 -35 36 147 0
96 -97 -98 -23 24 -25 34 -35 -36 146 0
96 -97 -98 -23 24 -25 -34 35 36 145 0
96 -97 -98 -23 24 -25 -34 35 -36 124 0
96 -97 -98 -23 24 -25 -34 -35 36 101 0
96 -97 -98 -23 24 -25 -34 -35 -36 137 0
96 -97 -98 -23 -24 25 34 35 36 99 0
96 -97 -98 -23 -24 25 34 35 -36 99 0
96 -97 -98 -23 -24 25 34 -35 36 154 0
96 -97 -98 -23 -24 25 34 -35 -36 136 0
96 -97 -98 -23 -24 25 -34 35 36 125 0
96 -97 -98 -23 -24 25 -34 35 -36 137 0
96 -97 -98 -23 -24 25 -34 -35 36 136 0
96 -97 -98 -23 -24 25 -34 -35 -36 99 0
96 -97 -98 -23 -24 -25 34 35 36 99 0
96 -97 -98 -23 -24 -25 34 35 -36 99 0
96 -97 -98 -23 -24 -25 34 -35 36 99 0
96 -97 -98 -23 -24 -25 34 -35 -36 136 0
96 -97 -98 -23 -24 -25 -34 35 36 136 0
96 -97 -98 -23 -24 -25 -34 35 -36 101 0
96 -97 -98 -23 -24 -25 -34 -35 36 101 0
96 -97 -98 -23 -24 -25 -34 -35 -36 101 0
-96 97 98 23 24 25 34 35 36 99 0
-96 97 98 23 24 25 34 35 -36 101 0
-96 97 98 23 24 25 34 -35 36 136 0
-96 97 98 23 24 25 34 -35 -36 123 0
-96 97 98 23 24 25 -34 35 36 100 0
-96 97 98 23 24 25 -34 35 -36 128 0
-96 97 98 23 24 25 -34 -35 36 136 0
-96 97 98 23 24 25 -34 -35 -36 101 0
-96 97 98 23 24 -25 34 35 36 99 0
-96 97 98 23 24 -25 34 35 -36 101 0
-96 97 98 23 24 -25 34 -35 36 136 0
-96 97 98 23 24 -25 34 -35 -36 102 0
-96 97 98 23 24 -25 -34 35 36 113 0
-96 97 98 23 24 -25 -34 35 -36 100 0
-96 97 98 23 24 -25 -34 -35 36 137 0
-96 97 98 23 24 -25 -34 -35 -36 101 0
-96 97 98 23 -24 25 34 35 36 136 0
-96 97 98 23 -24 25 34 35 -36 119 0
-96 97 98 23 -24 25 34 -35 36 149 0
-96 97 98 23 -24 25 34 -35 -36 106 0
-96 97 98 23 -24 25 -34 35 36 147 0
-96 97 98 23 -24 25 -34 35 -36 156 0
-96 97 98 23 -24 25 -34 -35 36 137 0
-96 97 98 23 -24 25 -34 -35 -36 123 0
-96 97 98 23 -24 -25 34 35 36 101 0
-96 97 98 23 -24 -25 34 35 -36 102 0
-96 97 98 23 -24 -25 34 -35 36 129 0
-96 97 98 23 -24 -25 34 -35 -36 105 0
-96 97 98 23 -24 -25 -34 35 36 116 0
-96 97 98 23 -24 -25 -34 35 -36 144 0
-96 97 98 23 -24 -25 -34 -35 36 149 0
-96 97 98 23 -24 -25 -34 -35 -36 123 0
-96 97 98 -23 24 25 34 35 36 119 0
-96 97 98 -23 24 25 34 35 -36 123 0
-96 97 98 -23 24 25 34 -35 36 102 0
-96 97 98 -23 24 25 34 -35 -36 141 0
-96 97 98 -23 24 25 -34 35 36 127 0
-96 97 98 -23 24 25 -34 35 -36 119 0
-96 97 98 -23 24 25 -34 -35 36 118 0
-96 97 98 -23 24 25 -34 -35 -36 137 0
-96 97 98 -23 24 -25 34 35 36 136 0
-96 97 98 -23 24 -25 34 35 -36 136 0
-96 97 98 -23 24 -25 34 -35 36 123 0
-96 97 98 -23 24 -25 34 -35 -36 148 0
-96 97 98 -23 24 -25 -34 35 36 126 0
-96 97 98 -23 24 -25 -34 35 -36 124 0
-96 97 98 -23 24 -25 -34 -35 36 101 0
-96 97 98 -23 24 -25 -34 -35 -36 137 0
-96 97 98 -23 -24 25 34 35 36 99 0
-96 97 98 -23 -24 25 34 35 -36 99 0
-96 97 98 -23 -24 25 34 -35 36 119 0
-96 97 98 -23 -24 25 34 -35 -36 103 0
-96 97 98 -23 -24 25 -34 35 36 125 0
-96 97 98 -23 -24 25 -34 35 -36 137 0
-96 97 98 -23 -24 25 -34 -35 36 136 0
-96 97 98 -23 -24 25 -34 -35 -36 99 0
-96 97 98 -23 -24 -25 34 35 36 99 0
-96 97 98 -23 -24 -25 34 35 -36 99 0
-96 97 98 -23 -24 -25 34 -35 36 99 0
-96 97 98 -23 -24 -25 34 -35 -36 103 0
-96 97 98 -23 -24 -25 -34 35 36 136 0
-96 97 98 -23 -24 -25 -34 35 -36 101 0
-96 97 98 -23 -24 -25 -34 -35 36 101 0
-96 97 98 -23 -24 -25 -34 -35 -36 101 0
-96 97 -98 23 24 25 34 35 36 99 0
-96 97 -98 23 24 25 34 35 -36 101 0
-96 97 -98 23 24 25 34 -35 36 136 0
-96 97 -98 23 24 25 34 -35 -36 123 0
-96 97 -98 23 24 25 -34 35 36 101 0
-96 97 -98 23 24 25 -34 35 -36 123 0
-96 97 -98 23 24 25 -34 -35 36 103 0
-96 97 -98 23 24 25 -34 -35 -36 101 0
-96 97 -98 23 24 -25 34 35 36 99 0
-96 97 -98 23 24 -25 34 35 -36 101 0
-96 97 -98 23 24 -25 34 -35 36 136 0
-96 97 -98 23 24 -25 34 -35 -36 102 0
-96 97 -98 23 24 -25 -34 35 36 102 0
-96 97 -98 23 24 -25 -34 35 -36 101 0
-96 97 -98 23 24 -25 -34 -35 36 115 0
-96 97 -98 23 24 -25 -34 -35 -36 101 0
-96 97 -98 23 -24 25 34 35 36 136 0
-96 97 -98 23 -24 25 34 35 -36 119 0
-96 97 -98 23 -24 25 34 -35 36 149 0
-96 97 -98 23 -24 25 34 -35 -36 106 0
-96 97 -98 23 -24 25 -34 35 36 145 0
-96 97 -98 23 -24 25 -34 35 -36 143 0
-96 97 -98 23 -24 25 -34 -35 36 115 0
-96 97 -98 23 -24 25 -34 -35 -36 123 0
-96 97 -98 23 -24 -25 34 35 36 101 0
-96 97 -98 23 -24 -25 34 35 -36 102 0
-96 97 -98 23 -24 -25 34 -35 36 129 0
-96 97 -98 23 -24 -25 34 -35 -36 105 0
-96 97 -98 23 -24 -25 -34 35 36 108 0
-96 97 -98 23 -24 -25 -34 35 -36 117 0
-96 97 -98 23 -24 -25 -34 -35 36 139 0
-96 97 -98 23 -24 -25 -34 -35 -36 123 0
-96 97 -98 -23 24 25 34 35 36 119 0
-96 97 -98 -23 24 25 34 35 -36 123 0
-96 97 -98 -23 24 25 34 -35 36 102 0
-96 97 -98 -23 24 25 34 -35 -36 151 0
-96 97 -98 -23 24 25 -34 35 36 140 0
-96 97 -98 -23 24 25 -34 35 -36 121 0
-96 97 -98 -23 24 25 -34 -35 36 118 0
-96 97 -98 -23 24 25 -34 -35 -36 137 0
-96 97 -98 -23 24 -25 34 35 36 136 0
-96 97 -98 -23 24 -25 34 35 -36 136 0
-96 97 -98 -23 24 -25 34 -35 36 123 0
-96 97 -98 -23 24 -25 34 -35 -36 152 0
-96 97 -98 -23 24 -25 -34 35 36 99 0
-96 97 -98 -23 24 -25 -34 35 -36 131 0
-96 97 -98 -23 24 -25 -34 -35 36 101 0
-96 97 -98 -23 24 -25 -34 -35 -36 137 0
-96 97 -98 -23 -24 25 34 35 36 99 0
-96 97 -98 -23 -24 25 34 35 -36 99 0
-96 97 -98 -23 -24 25 34 -35 36 119 0
-96 97 -98 -23 -24 25 34 -35 -36 136 0
-96 97 -98 -23 -24 25 -34 35 36 159 0
-96 97 -98 -23 -24 25 -34 35 -36 137 0
-96 97 -98 -23 -24 25 -34 -35 36 136 0
-96 97 -98 -23 -24 25 -34 -35 -36 99 0
-96 97 -98 -23 -24 -25 34 35 36 99 0
-96 97 -98 -23 -24 -25 34 35 -36 99 0
-96 97 -98 -23 -24 -25 34 -35 36 99 0
-96 97 -98 -23 -24 -25 34 -35 -36 136 0
-96 97 -98 -23 -24 -25 -34 35 36 103 0
-96 97 -98 -23 -24 -25 -34 35 -36 101 0
-96 97 -98 -23 -24 -25 -34 -35 36 101 0
-96 97 -98 -23 -24 -25 -34 -35 -36 101 0
-96 -97 98 23 24 25 34 35 36 99 0
-96 -97 98 23 24 25 34 35 -36 101 0
-96 -97 98 23 24 25 34 -35 36 136 0
-96 -97 98 23 24 25 34 -35 -36 123 0
-96 -97 98 23 24 25 -34 35 36 101 0
-96 -97 98 23 24 25 -34 35 -36 123 0
-96 -97 98 23 24 25 -34 -35 36 136 0
-96 -97 98 23 24 25 -34 -35 -36 100 0
-96 -97 98 23 24 -25 34 35 36 99 0
-96 -97 98 23 24 -25 34 35 -36 101 0
-96 -97 98 23 24 -25 34 -35 36 136 0
-96 -97 98 23 24 -25 34 -35 -36 102 0
-96 -97 98 23 24 -25 -34 35 36 102 0
-96 -97 98 23 24 -25 -34 35 -36 101 0
-96 -97 98 23 24 -25 -34 -35 36 146 0
-96 -97 98 23 24 -25 -34 -35 -36 100 0
-96 -97 98 23 -24 25 34 35 36 136 0
-96 -97 98 23 -24 25 34 35 -36 119 0
-96 -97 98 23 -24 25 34 -35 36 149 0
-96 -97 98 23 -24 25 34 -35 -36 106 0
-96 -97 98 23 -24 25 -34 35 36 145 0
-96 -97 98 23 -24 25 -34 35 -36 106 0
-96 -97 98 23 -24 25 -34 -35 36 146 0
-96 -97 98 23 -24 25 -34 -35 -36 140 0
-96 -97 98 23 -24 -25 34 35 36 101 0
-96 -97 98 23 -24 -25 34 35 -36 102 0
-96 -97 98 23 -24 -25 34 -35 36 129 0
-96 -97 98 23 -24 -25 34 -35 -36 105 0
-96 -97 98 23 -24 -25 -34 35 36 108 0
-96 -97 98 23 -24 -25 -34 35 -36 157 0
-96 -97 98 23 -24 -25 -34 -35 36 160 0
-96 -97 98 23 -24 -25 -34 -35 -36 147 0
-96 -97 98 -23 24 25 34 35 36 119 0
-96 -97 98 -23 24 25 34 35 -36 123 0
-96 -97 98 -23 24 25 34 -35 36 102 0
-96 -97 98 -23 24 25 34 -35 -36 151 0
-96 -97 98 -23 24 25 -34 35 36 150 0
-96 -97 98 -23 24 25 -34 35 -36 142 0
-96 -97 98 -23 24 25 -34 -35 36 158 0
-96 -97 98 -23 24 25 -34 -35 -36 115 0
-96 -97 98 -23 24 -25 34 35 36 136 0
-96 -97 98 -23 24 -25 34 35 -36 136 0
-96 -97 98 -23 24 -25 34 -35 36 123 0
-96 -97 98 -23 24 -25 34 -35 -36 152 0
-96 -97 98 -23 24 -25 -34 35 36 145 0
-96 -97 98 -23 24 -25 -34 35 -36 122 0
-96 -97 98 -23 24 -25 -34 -35 36 101 0
-96 -97 98 -23 24 -25 -34 -35 -36 137 0
-96 -97 98 -23 -24 25 34 35 36 99 0
-96 -97 98 -23 -24 25 34 35 -36 99 0
-96 -97 98 -23 -24 25 34 -35 36 119 0
-96 -97 98 -23 -24 25 34 -35 -36 136 0
-96 -97 98 -23 -24 25 -34 35 36 125 0
-96 -97 98 -23 -24 25 -34 35 -36 120 0
-96 -97 98 -23 -24 25 -34 -35 36 132 0
-96 -97 98 -23 -24 25 -34 -35 -36 99 0
-96 -97 98 -23 -24 -25 34 35 36 99 0
-96 -97 98 -23 -24 -25 34 35 -36 99 0
-96 -97 98 -23 -24 -25 34 -35 36 99 0
-96 -97 98 -23 -24 -25 34 -35 -36 136 0
-96 -97 98 -23 -24 -25 -34 35 36 136 0
-96 -97 98 -23 -24 -25 -34 35 -36 100 0
-96 -97 98 -23 -24 -25 -34 -35 36 101 0
-96 -97 98 -23 -24 -25 -34 -35 -36 101 0
-96 -97 -98 23 24 25 34 35 36 99 0
-96 -97 -98 23 24 25 34 35 -36 101 0
-96 -97 -98 23 24 25 34 -35 36 136 0
-96 -97 -98 23 24 25 34 -35 -36 123 0
-96 -97 -98 23 24 25 -34 35 36 101 0
-96 -97 -98 23 24 25 -34 35 -36 123 0
-96 -97 -98 23 24 25 -34 -35 36 136 0
-96 -97 -98 23 24 25 -34 -35 -36 101 0
-96 -97 -98 23 24 -25 34 35 36 99 0
-96 -97 -98 23 24 -25 34 35 -36 101 0
-96 -97 -98 23 24 -25 34 -35 36 136 0
-96 -97 -98 23 24 -25 34 -35 -36 102 0
-96 -97 -98 23 24 -25 -34 35 36 102 0
-96 -97 -98 23 24 -25 -34 35 -36 101 0
-96 -97 -98 23 24 -25 -34 -35 36 137 0
-96 -97 -98 23 24 -25 -34 -35 -36 101 0
-96 -97 -98 23 -24 25 34 35 36 136 0
-96 -97 -98 23 -24 25 34 35 -36 119 0
-96 -97 -98 23 -24 25 34 -35 36 149 0
-96 -97 -98 23 -24 25 34 -35 -36 106 0
-96 -97 -98 23 -24 25 -34 35 36 145 0
-96 -97 -98 23 -24 25 -34 35 -36 106 0
-96 -97 -98 23 -24 25 -34 -35 36 137 0
-96 -97 -98 23 -24 25 -34 -35 -36 147 0
-96 -97 -98 23 -24 -25 34 35 36 101 0
-96 -97 -98 23 -24 -25 34 35 -36 102 0
-96 -97 -98 23 -24 -25 34 -35 36 129 0
-96 -97 -98 23 -24 -25 34 -35 -36 105 0
-96 -97 -98 23 -24 -25 -34 35 36 108 0
-96 -97 -98 23 -24 -25 -34 35 -36 157 0
-96 -97 -98 23 -24 -25 -34 -35 36 149 0
-96 -97 -98 23 -24 -25 -34 -35 -36 140 0
-96 -97 -98 -23 24 25 34 35 36 119 0
-96 -97 -98 -23 24 25 34 35 -36 123 0
-96 -97 -98 -23 24 25 34 -35 36 102 0
-96 -97 -98 -23 24 25 34 -35 -36 151 0
-96 -97 -98 -23 24 25 -34 35 36 150 0
-96 -97 -98 -23 24 25 -34 35 -36 138 0
-96 -97 -98 -23 24 25 -34 -35 36 118 0
-96 -97 -98 -23 24 25 -34 -35 -36 146 0
-96 -97 -98 -23 24 -25 34 35 36 136 0
-96 -97 -98 -23 24 -25 34 35 -36 136 0
-96 -97 -98 -23 24 -25 34 -35 36 123 0
-96 -97 -98 -23 24 -25 34 -35 -36 152 0
-96 -97 -98 -23 24 -25 -34 35 36 145 0
-96 -97 -98 -23 24 -25 -34 35 -36 124 0
-96 -97 -98 -23 24 -25 -34 -35 36 100 0
-96 -97 -98 -23 24 -25 -34 -35 -36 120 0
-96 -97 -98 -23 -24 25 34 35 36 99 0
-96 -97 -98 -23 -24 25 34 35 -36 99 0
-96 -97 -98 -23 -24 25 34 -35 36 119 0
-96 -97 -98 -23 -24 25 34 -35 -36 136 0
-96 -97 -98 -23 -24 25 -34 35 36 125 0
-96 -97 -98 -23 -24 25 -34 35 -36 137 0
-96 -97 -98 -23 -24 25 -34 -35 36 132 0
-96 -97 -98 -23 -24 25 -34 -35 -36 99 0
-96 -97 -98 -23 -24 -25 34 35 36 99 0
-96 -97 -98 -23 -24 -25 34 35 -36 99 0
-96 -97 -98 -23 -24 -25 34 -35 36 99 0
-96 -97 -98 -23 -24 -25 34 -35 -36 136 0
-96 -97 -98 -23 -24 -25 -34 35 36 136 0
-96 -97 -98 -23 -24 -25 -34 35 -36 101 0
-96 -97 -98 -23 -24 -25 -34 -35 36 100 0
-96 -97 -98 -23 -24 -25 -34 -35 -36 100 0
